minizinc/sudoku_problems2/sudoku_p48.dzn
%
% sudoku_p48.dzn
% See http://www.hakank.org/minizinc/sudoku_gcc.mzn
% 
% This problem is problem 48 from
% Gecode's sudoku.cpp
% http://www.gecode.org/gecode-doc-latest/sudoku_8cpp-source.html
% 
x = array2d(1..n, 1..n, [   
% http://janko.at/Raetsel/Sudoku/365.a.htm
% 48
  _,  _, 13,  _,  2,  _,  _,  _,  5, 10,  1,  _,  _,  _,  _, 15,
 14,  2,  1, 15,  _,  _,  9,  _,  _,  6,  _, 13,  _,  _,  _, 16,
  7, 10,  _,  9, 16,  1,  _,  _,  2, 14,  _,  4, 13,  _,  _,  8,
  _, 11,  6,  4,  _,  3, 15, 10,  _,  _,  _,  8,  _, 14,  _,  2,
  _,  _,  _,  3,  _,  _,  _, 15,  _,  _,  _, 16,  2, 10,  _,  _,
  _, 15,  7,  _,  _,  _,  5,  _,  8, 13,  4,  _, 11,  _,  3,  _,
  4,  _,  _,  _,  _, 12,  _,  _,  _,  _,  _, 15,  8,  _, 13,  1,
  _, 16,  _,  _,  _,  _, 11,  3, 10,  2,  _,  _,  _,  _,  _,  6,
  3,  _,  _,  _,  _,  _,  4, 12, 15,  8,  _,  _,  _,  _,  6,  _,
  9,  4,  _, 11,  1,  _,  _,  _,  _,  _, 13,  _,  _,  _,  _, 14,
  _, 12,  _, 10,  _, 14,  8, 13,  _, 11,  _,  _,  _,  1,  5,  _,
  _,  _, 16,  8, 11,  _,  _,  _,  1,  _,  _,  _, 12,  _,  _,  _,
 11,  _, 10,  _,  8,  _,  _,  _,  6, 15,  2,  _,  3, 13, 14,  _,
  2,  _,  _,  1,  6,  _, 14,  5,  _,  _, 10,  3,  9,  _,  8,  4,
  6,  _,  _,  _,  9,  _,  3,  _,  _,  5,  _,  _,  1, 12,  2, 11,
  8,  _,  _,  _,  _, 13,  1,  2,  _,  _,  _,  9,  _,  6,  _,  _
]);

n = 16;


